15 4 
1947	1947	1947	1947	
760	416	452	
474	589	607	
402	601	642	
326	529	530	
329	881	961	
395	371	388	
421	485	497	
511	42	45	
34	252	253	
653	875	944	
521	580	612	
424	11	11	
63	910	991	
146	493	542	
870	756	786	
